3 5 2
3 2 1 117 2 125 2 4 140 2 130 2 4 150 5 160
3 2 1 214 3 150 2 3 55 2 66 2 5 78 3 65
3 2 1 87 2 62 2 4 70 3 80 2 4 190 5 100

22 1000000 1000000 13 1000000 1000000 12 1000000 1000000 
1000000 1000000 1000000 1000000 1000000 1000000 1000000 1000000 1000000 
1000000 1000000 1000000 1000000 1000000 1000000 1000000 1000000 1000000 
9 1000000 1000000 22 1000000 1000000 14 1000000 1000000 
1000000 1000000 1000000 1000000 1000000 1000000 1000000 1000000 1000000 
1000000 1000000 1000000 1000000 1000000 1000000 1000000 1000000 1000000 
11 1000000 1000000 12 1000000 1000000 23 1000000 1000000 
1000000 1000000 1000000 1000000 1000000 1000000 1000000 1000000 1000000 
1000000 1000000 1000000 1000000 1000000 1000000 1000000 1000000 1000000 
18 9 1000000 1000000 9 1000000 10 1000000 1000000 
9 18 1000000 1000000 13 1000000 10 1000000 1000000 
1000000 1000000 1000000 1000000 1000000 1000000 1000000 1000000 1000000 
1000000 1000000 1000000 1000000 1000000 1000000 1000000 1000000 1000000 
11 13 1000000 1000000 20 1000000 12 1000000 1000000 
1000000 1000000 1000000 1000000 1000000 1000000 1000000 1000000 1000000 
15 10 1000000 1000000 13 1000000 20 1000000 1000000 
1000000 1000000 1000000 1000000 1000000 1000000 1000000 1000000 1000000 
1000000 1000000 1000000 1000000 1000000 1000000 1000000 1000000 1000000 
1000000 1000000 1000000 1000000 1000000 1000000 1000000 1000000 1000000 
1000000 1000000 1000000 1000000 1000000 1000000 1000000 1000000 1000000 
1000000 1000000 1000000 1000000 1000000 1000000 1000000 1000000 1000000 
1000000 1000000 1000000 20 10 11 1000000 10 1000000 
1000000 1000000 1000000 14 21 14 1000000 9 1000000 
1000000 1000000 1000000 11 11 22 1000000 12 1000000 
1000000 1000000 1000000 1000000 1000000 1000000 1000000 1000000 1000000 
1000000 1000000 1000000 10 12 11 1000000 20 1000000 
1000000 1000000 1000000 1000000 1000000 1000000 1000000 1000000 1000000 
1000000 1000000 1000000 1000000 1000000 1000000 1000000 1000000 1000000 
1000000 20 10 1000000 1000000 1000000 1000000 10 9 
1000000 15 22 1000000 1000000 1000000 1000000 13 12 
1000000 1000000 1000000 1000000 1000000 1000000 1000000 1000000 1000000 
1000000 1000000 1000000 1000000 1000000 1000000 1000000 1000000 1000000 
1000000 1000000 1000000 1000000 1000000 1000000 1000000 1000000 1000000 
1000000 1000000 1000000 1000000 1000000 1000000 1000000 1000000 1000000 
1000000 10 10 1000000 1000000 1000000 1000000 18 10 
1000000 11 10 1000000 1000000 1000000 1000000 8 18 
1000000 1000000 1000000 1000000 1000000 1000000 1000000 1000000 1000000 
1000000 1000000 1000000 1000000 1000000 1000000 1000000 1000000 1000000 
1000000 1000000 21 1000000 1000000 10 1000000 1000000 12 
1000000 1000000 1000000 1000000 1000000 1000000 1000000 1000000 1000000 
1000000 1000000 1000000 1000000 1000000 1000000 1000000 1000000 1000000 
1000000 1000000 12 1000000 1000000 22 1000000 1000000 10 
1000000 1000000 1000000 1000000 1000000 1000000 1000000 1000000 1000000 
1000000 1000000 1000000 1000000 1000000 1000000 1000000 1000000 1000000 
1000000 1000000 9 1000000 1000000 14 1000000 1000000 21 
